120
150
53
59
41
51
59
49
42
60
55
43
48
59
40
53
59
40
54
51
45
50
56
44
48
51
51
59
55
40
55
57
42
51
40
40
40
45
45
60
52
47
51
40
55
56
54
40
40
40
40
55
51
44
40
42
42
47
49
55
40
42
42
54
54
58
50
42
50
51
49
40
42
50
60
60
50
45
55
46
60
44
40
40
40
55
45
50
48
60
42
40
53
59
40
55
44
51
45
45
60
56
40
55
44
51
44
59
56
44
50
50
56
44
46
44
60
46
51
53
55
55
